; benchmark generated from python API
(set-info :status unknown)
(declare-fun x_epoch () Int)
(declare-fun x_plus_epoch () Int)
(declare-fun x_plus_month () Int)
(declare-fun x_plus_year () Int)
(declare-fun x_plus_day () Int)
(declare-fun x_plus_1_epoch () Int)
(assert
 (>= x_epoch (- 36584)))
(assert
 (<= x_epoch 36829))
(assert
 (>= x_epoch 7214))
(assert
 (<= x_epoch 7304))
(assert
 (>= x_plus_epoch (- 36584)))
(assert
 (<= x_plus_epoch 36829))
(assert
 (let (($x736 (= x_plus_month 11)))
 (let (($x1190 (= x_plus_month 9)))
 (let (($x1542 (= x_plus_month 6)))
 (let (($x1588 (= x_plus_month 4)))
 (let ((?x716 (ite (or $x1588 $x1542 $x1190 $x736) 30 31)))
 (let (($x1486 (= (mod x_plus_year 400) 0)))
 (let (($x790 (= (mod x_plus_year 4) 0)))
 (let (($x1582 (or (and $x790 (and (distinct (mod x_plus_year 100) 0) true)) $x1486)))
 (let (($x396 (= x_plus_month 2)))
 (let (($x1584 (>= x_plus_day 1)))
 (let (($x1526 (<= x_plus_month 12)))
 (let (($x472 (>= x_plus_month 1)))
 (let (($x1115 (<= x_plus_year 2100)))
 (let (($x562 (>= x_plus_year 1900)))
 (and $x562 $x1115 $x472 $x1526 $x1584 (<= x_plus_day (ite $x396 (ite $x1582 29 28) ?x716))))))))))))))))))
(assert
 (let (($x1486 (= (mod x_plus_year 400) 0)))
 (let (($x790 (= (mod x_plus_year 4) 0)))
 (let (($x1582 (or (and $x790 (and (distinct (mod x_plus_year 100) 0) true)) $x1486)))
 (let ((?x885 (ite (= 2 x_plus_month) (ite $x1582 31 31) (ite (= 1 x_plus_month) (ite $x1582 0 0) 0))))
 (let ((?x1017 (ite (= 4 x_plus_month) (ite $x1582 91 90) (ite (= 3 x_plus_month) (ite $x1582 60 59) ?x885))))
 (let ((?x1138 (ite (= 6 x_plus_month) (ite $x1582 152 151) (ite (= 5 x_plus_month) (ite $x1582 121 120) ?x1017))))
 (let ((?x1108 (ite (= 8 x_plus_month) (ite $x1582 213 212) (ite (= 7 x_plus_month) (ite $x1582 182 181) ?x1138))))
 (let ((?x1357 (ite (= 10 x_plus_month) (ite $x1582 274 273) (ite (= 9 x_plus_month) (ite $x1582 244 243) ?x1108))))
 (let ((?x1000 (ite (= 12 x_plus_month) (ite $x1582 335 334) (ite (= 11 x_plus_month) (ite $x1582 305 304) ?x1357))))
 (let ((?x341 (+ (* 365 (- x_plus_year 1)) (div (- x_plus_year 1) 4))))
 (let ((?x787 (+ (- ?x341 (div (- x_plus_year 1) 100)) (div (- x_plus_year 1) 400))))
 (= x_plus_epoch (- (+ (+ ?x787 ?x1000) (- x_plus_day 1)) 730179))))))))))))))
(assert
 (let ((?x436 (+ x_epoch 730179)))
 (let ((?x724 (mod ?x436 146097)))
 (let ((?x733 (div ?x724 36524)))
 (let ((?x484 (ite (<= 4 ?x733) 3 ?x733)))
 (let ((?x1104 (- ?x724 (* ?x484 36524))))
 (let ((?x1437 (mod ?x1104 1461)))
 (let ((?x1604 (div ?x1437 365)))
 (let ((?x970 (ite (<= 4 ?x1604) 3 ?x1604)))
 (let ((?x1499 (+ (+ (* (div ?x436 146097) 400) (* ?x484 100)) (* (div ?x1104 1461) 4))))
 (let ((?x1609 (+ (+ ?x1499 ?x970) 1)))
 (let (($x719 (or (and (= (mod ?x1609 4) 0) (and (distinct (mod ?x1609 100) 0) true)) (= (mod ?x1609 400) 0))))
 (let ((?x1601 (- ?x1437 (* ?x970 365))))
 (let ((?x247 (ite $x719 31 31)))
 (let (($x1401 (>= ?x1601 ?x247)))
 (let ((?x550 (ite $x1401 (+ (- ?x1601 ?x247) 1) (+ (- ?x1601 (ite $x719 0 0)) 1))))
 (let ((?x1072 (ite $x719 60 59)))
 (let (($x798 (>= ?x1601 ?x1072)))
 (let ((?x1248 (ite $x719 91 90)))
 (let (($x875 (>= ?x1601 ?x1248)))
 (let ((?x983 (ite $x875 (+ (- ?x1601 ?x1248) 1) (ite $x798 (+ (- ?x1601 ?x1072) 1) ?x550))))
 (let ((?x732 (ite $x719 121 120)))
 (let (($x1532 (>= ?x1601 ?x732)))
 (let ((?x404 (ite $x719 152 151)))
 (let (($x1294 (>= ?x1601 ?x404)))
 (let ((?x1168 (ite $x1294 (+ (- ?x1601 ?x404) 1) (ite $x1532 (+ (- ?x1601 ?x732) 1) ?x983))))
 (let ((?x1046 (ite $x719 182 181)))
 (let (($x1554 (>= ?x1601 ?x1046)))
 (let ((?x237 (ite $x719 213 212)))
 (let (($x807 (>= ?x1601 ?x237)))
 (let ((?x1419 (ite $x807 (+ (- ?x1601 ?x237) 1) (ite $x1554 (+ (- ?x1601 ?x1046) 1) ?x1168))))
 (let ((?x1008 (ite $x719 244 243)))
 (let (($x314 (>= ?x1601 ?x1008)))
 (let ((?x1358 (ite $x719 274 273)))
 (let (($x897 (>= ?x1601 ?x1358)))
 (let ((?x834 (ite $x897 (+ (- ?x1601 ?x1358) 1) (ite $x314 (+ (- ?x1601 ?x1008) 1) ?x1419))))
 (let ((?x1477 (ite $x719 305 304)))
 (let (($x293 (>= ?x1601 ?x1477)))
 (let ((?x895 (ite $x719 335 334)))
 (let (($x830 (>= ?x1601 ?x895)))
 (let ((?x792 (ite $x830 (+ (- ?x1601 ?x895) 1) (ite $x293 (+ (- ?x1601 ?x1477) 1) ?x834))))
 (let ((?x1405 (+ (* 1 12) 0)))
 (let ((?x241 (ite $x1532 5 (ite $x875 4 (ite $x798 3 (ite $x1401 2 1))))))
 (let ((?x400 (ite $x314 9 (ite $x807 8 (ite $x1554 7 (ite $x1294 6 ?x241))))))
 (let ((?x811 (ite $x830 12 (ite $x293 11 (ite $x897 10 ?x400)))))
 (let ((?x3189 (+ ?x811 ?x1405)))
 (let ((?x3194 (- ?x3189 1)))
 (let ((?x392 (+ (mod ?x3194 12) 1)))
 (let ((?x1302 (ite (or (= ?x392 4) (= ?x392 6) (= ?x392 9) (= ?x392 11)) 30 31)))
 (let (($x3233 (and (= (mod (+ ?x1609 (+ 0 (div ?x3194 12))) 4) 0) (and (distinct (mod (+ ?x1609 (+ 0 (div ?x3194 12))) 100) 0) true))))
 (let (($x2061 (or $x3233 (= (mod (+ ?x1609 (+ 0 (div ?x3194 12))) 400) 0))))
 (let ((?x544 (ite (= ?x392 2) (ite $x2061 29 28) ?x1302)))
 (let (($x1149 (> 1 ?x792)))
 (let ((?x2403 (ite $x1149 1 (ite (> ?x792 ?x544) ?x544 ?x792))))
 (let ((?x2466 (ite (> 1 ?x2403) 1 (ite (> ?x2403 ?x544) ?x544 ?x2403))))
 (let ((?x1693 (ite (= 2 ?x392) (ite $x2061 31 31) (ite (= 1 ?x392) (ite $x2061 0 0) 0))))
 (let ((?x3029 (ite (= 4 ?x392) (ite $x2061 91 90) (ite (= 3 ?x392) (ite $x2061 60 59) ?x1693))))
 (let ((?x1963 (ite (= 6 ?x392) (ite $x2061 152 151) (ite (= 5 ?x392) (ite $x2061 121 120) ?x3029))))
 (let ((?x2616 (ite (= 8 ?x392) (ite $x2061 213 212) (ite (= 7 ?x392) (ite $x2061 182 181) ?x1963))))
 (let ((?x2058 (ite (= 10 ?x392) (ite $x2061 274 273) (ite (= 9 ?x392) (ite $x2061 244 243) ?x2616))))
 (let ((?x2667 (ite (= 12 ?x392) (ite $x2061 335 334) (ite (= 11 ?x392) (ite $x2061 305 304) ?x2058))))
 (let ((?x2011 (+ (* 365 (- (+ ?x1609 (+ 0 (div ?x3194 12))) 1)) (div (- (+ ?x1609 (+ 0 (div ?x3194 12))) 1) 4))))
 (let ((?x1095 (+ (- ?x2011 (div (- (+ ?x1609 (+ 0 (div ?x3194 12))) 1) 100)) (div (- (+ ?x1609 (+ 0 (div ?x3194 12))) 1) 400))))
 (let ((?x2450 (+ (+ (- (+ (+ ?x1095 ?x2667) (- ?x2466 1)) 730179) 0) 730179)))
 (let ((?x2465 (mod ?x2450 146097)))
 (let ((?x1634 (div ?x2465 36524)))
 (let ((?x1447 (ite (<= 4 ?x1634) 3 ?x1634)))
 (let ((?x2400 (- ?x2465 (* ?x1447 36524))))
 (let ((?x2467 (mod ?x2400 1461)))
 (let ((?x2409 (div ?x2467 365)))
 (let ((?x2390 (ite (<= 4 ?x2409) 3 ?x2409)))
 (let ((?x1047 (+ (+ (* (div ?x2450 146097) 400) (* ?x1447 100)) (* (div ?x2400 1461) 4))))
 (let ((?x2858 (+ (+ ?x1047 ?x2390) 1)))
 (let ((?x1366 (+ 0 (div ?x3194 12))))
 (let ((?x2370 (+ ?x1609 ?x1366)))
 (let (($x1367 (= 0 0)))
 (let ((?x2830 (ite $x1367 ?x2370 ?x2858)))
 (= x_plus_year ?x2830))))))))))))))))))))))))))))))))))))))))))))))))))))))))))))))))))))))))))))))
(assert
 (let ((?x436 (+ x_epoch 730179)))
 (let ((?x724 (mod ?x436 146097)))
 (let ((?x733 (div ?x724 36524)))
 (let ((?x484 (ite (<= 4 ?x733) 3 ?x733)))
 (let ((?x1104 (- ?x724 (* ?x484 36524))))
 (let ((?x1437 (mod ?x1104 1461)))
 (let ((?x1604 (div ?x1437 365)))
 (let ((?x970 (ite (<= 4 ?x1604) 3 ?x1604)))
 (let ((?x1499 (+ (+ (* (div ?x436 146097) 400) (* ?x484 100)) (* (div ?x1104 1461) 4))))
 (let ((?x1609 (+ (+ ?x1499 ?x970) 1)))
 (let (($x719 (or (and (= (mod ?x1609 4) 0) (and (distinct (mod ?x1609 100) 0) true)) (= (mod ?x1609 400) 0))))
 (let ((?x1601 (- ?x1437 (* ?x970 365))))
 (let ((?x247 (ite $x719 31 31)))
 (let (($x1401 (>= ?x1601 ?x247)))
 (let ((?x550 (ite $x1401 (+ (- ?x1601 ?x247) 1) (+ (- ?x1601 (ite $x719 0 0)) 1))))
 (let ((?x1072 (ite $x719 60 59)))
 (let (($x798 (>= ?x1601 ?x1072)))
 (let ((?x1248 (ite $x719 91 90)))
 (let (($x875 (>= ?x1601 ?x1248)))
 (let ((?x983 (ite $x875 (+ (- ?x1601 ?x1248) 1) (ite $x798 (+ (- ?x1601 ?x1072) 1) ?x550))))
 (let ((?x732 (ite $x719 121 120)))
 (let (($x1532 (>= ?x1601 ?x732)))
 (let ((?x404 (ite $x719 152 151)))
 (let (($x1294 (>= ?x1601 ?x404)))
 (let ((?x1168 (ite $x1294 (+ (- ?x1601 ?x404) 1) (ite $x1532 (+ (- ?x1601 ?x732) 1) ?x983))))
 (let ((?x1046 (ite $x719 182 181)))
 (let (($x1554 (>= ?x1601 ?x1046)))
 (let ((?x237 (ite $x719 213 212)))
 (let (($x807 (>= ?x1601 ?x237)))
 (let ((?x1419 (ite $x807 (+ (- ?x1601 ?x237) 1) (ite $x1554 (+ (- ?x1601 ?x1046) 1) ?x1168))))
 (let ((?x1008 (ite $x719 244 243)))
 (let (($x314 (>= ?x1601 ?x1008)))
 (let ((?x1358 (ite $x719 274 273)))
 (let (($x897 (>= ?x1601 ?x1358)))
 (let ((?x834 (ite $x897 (+ (- ?x1601 ?x1358) 1) (ite $x314 (+ (- ?x1601 ?x1008) 1) ?x1419))))
 (let ((?x1477 (ite $x719 305 304)))
 (let (($x293 (>= ?x1601 ?x1477)))
 (let ((?x895 (ite $x719 335 334)))
 (let (($x830 (>= ?x1601 ?x895)))
 (let ((?x792 (ite $x830 (+ (- ?x1601 ?x895) 1) (ite $x293 (+ (- ?x1601 ?x1477) 1) ?x834))))
 (let ((?x1405 (+ (* 1 12) 0)))
 (let ((?x241 (ite $x1532 5 (ite $x875 4 (ite $x798 3 (ite $x1401 2 1))))))
 (let ((?x400 (ite $x314 9 (ite $x807 8 (ite $x1554 7 (ite $x1294 6 ?x241))))))
 (let ((?x811 (ite $x830 12 (ite $x293 11 (ite $x897 10 ?x400)))))
 (let ((?x3189 (+ ?x811 ?x1405)))
 (let ((?x3194 (- ?x3189 1)))
 (let ((?x392 (+ (mod ?x3194 12) 1)))
 (let ((?x1302 (ite (or (= ?x392 4) (= ?x392 6) (= ?x392 9) (= ?x392 11)) 30 31)))
 (let (($x3233 (and (= (mod (+ ?x1609 (+ 0 (div ?x3194 12))) 4) 0) (and (distinct (mod (+ ?x1609 (+ 0 (div ?x3194 12))) 100) 0) true))))
 (let (($x2061 (or $x3233 (= (mod (+ ?x1609 (+ 0 (div ?x3194 12))) 400) 0))))
 (let ((?x544 (ite (= ?x392 2) (ite $x2061 29 28) ?x1302)))
 (let (($x1149 (> 1 ?x792)))
 (let ((?x2403 (ite $x1149 1 (ite (> ?x792 ?x544) ?x544 ?x792))))
 (let ((?x2466 (ite (> 1 ?x2403) 1 (ite (> ?x2403 ?x544) ?x544 ?x2403))))
 (let ((?x1693 (ite (= 2 ?x392) (ite $x2061 31 31) (ite (= 1 ?x392) (ite $x2061 0 0) 0))))
 (let ((?x3029 (ite (= 4 ?x392) (ite $x2061 91 90) (ite (= 3 ?x392) (ite $x2061 60 59) ?x1693))))
 (let ((?x1963 (ite (= 6 ?x392) (ite $x2061 152 151) (ite (= 5 ?x392) (ite $x2061 121 120) ?x3029))))
 (let ((?x2616 (ite (= 8 ?x392) (ite $x2061 213 212) (ite (= 7 ?x392) (ite $x2061 182 181) ?x1963))))
 (let ((?x2058 (ite (= 10 ?x392) (ite $x2061 274 273) (ite (= 9 ?x392) (ite $x2061 244 243) ?x2616))))
 (let ((?x2667 (ite (= 12 ?x392) (ite $x2061 335 334) (ite (= 11 ?x392) (ite $x2061 305 304) ?x2058))))
 (let ((?x2011 (+ (* 365 (- (+ ?x1609 (+ 0 (div ?x3194 12))) 1)) (div (- (+ ?x1609 (+ 0 (div ?x3194 12))) 1) 4))))
 (let ((?x1095 (+ (- ?x2011 (div (- (+ ?x1609 (+ 0 (div ?x3194 12))) 1) 100)) (div (- (+ ?x1609 (+ 0 (div ?x3194 12))) 1) 400))))
 (let ((?x2450 (+ (+ (- (+ (+ ?x1095 ?x2667) (- ?x2466 1)) 730179) 0) 730179)))
 (let ((?x2465 (mod ?x2450 146097)))
 (let ((?x1634 (div ?x2465 36524)))
 (let ((?x1447 (ite (<= 4 ?x1634) 3 ?x1634)))
 (let ((?x2400 (- ?x2465 (* ?x1447 36524))))
 (let ((?x2467 (mod ?x2400 1461)))
 (let ((?x2409 (div ?x2467 365)))
 (let ((?x2390 (ite (<= 4 ?x2409) 3 ?x2409)))
 (let ((?x1047 (+ (+ (* (div ?x2450 146097) 400) (* ?x1447 100)) (* (div ?x2400 1461) 4))))
 (let ((?x2858 (+ (+ ?x1047 ?x2390) 1)))
 (let (($x3001 (or (and (= (mod ?x2858 4) 0) (and (distinct (mod ?x2858 100) 0) true)) (= (mod ?x2858 400) 0))))
 (let ((?x230 (ite $x3001 31 31)))
 (let ((?x505 (- ?x2467 (* ?x2390 365))))
 (let (($x285 (>= ?x505 ?x230)))
 (let ((?x2843 (ite $x3001 60 59)))
 (let (($x1599 (>= ?x505 ?x2843)))
 (let ((?x2472 (ite $x3001 91 90)))
 (let (($x2435 (>= ?x505 ?x2472)))
 (let ((?x2020 (ite $x3001 121 120)))
 (let (($x2240 (>= ?x505 ?x2020)))
 (let ((?x2431 (ite $x2240 5 (ite $x2435 4 (ite $x1599 3 (ite $x285 2 1))))))
 (let ((?x2239 (ite $x3001 152 151)))
 (let (($x3097 (>= ?x505 ?x2239)))
 (let ((?x2765 (ite $x3001 182 181)))
 (let (($x927 (>= ?x505 ?x2765)))
 (let ((?x3099 (ite $x3001 213 212)))
 (let (($x2373 (>= ?x505 ?x3099)))
 (let ((?x801 (ite $x3001 244 243)))
 (let (($x854 (>= ?x505 ?x801)))
 (let ((?x2097 (ite $x854 9 (ite $x2373 8 (ite $x927 7 (ite $x3097 6 ?x2431))))))
 (let ((?x2397 (ite $x3001 274 273)))
 (let (($x2087 (>= ?x505 ?x2397)))
 (let ((?x1980 (ite $x3001 305 304)))
 (let (($x244 (>= ?x505 ?x1980)))
 (let ((?x2432 (ite $x3001 335 334)))
 (let (($x845 (>= ?x505 ?x2432)))
 (let (($x1367 (= 0 0)))
 (let ((?x2767 (ite $x1367 ?x392 (ite $x845 12 (ite $x244 11 (ite $x2087 10 ?x2097))))))
 (= x_plus_month ?x2767))))))))))))))))))))))))))))))))))))))))))))))))))))))))))))))))))))))))))))))))))))))))))))))))))))))
(assert
 (let ((?x436 (+ x_epoch 730179)))
 (let ((?x724 (mod ?x436 146097)))
 (let ((?x733 (div ?x724 36524)))
 (let ((?x484 (ite (<= 4 ?x733) 3 ?x733)))
 (let ((?x1104 (- ?x724 (* ?x484 36524))))
 (let ((?x1437 (mod ?x1104 1461)))
 (let ((?x1604 (div ?x1437 365)))
 (let ((?x970 (ite (<= 4 ?x1604) 3 ?x1604)))
 (let ((?x1499 (+ (+ (* (div ?x436 146097) 400) (* ?x484 100)) (* (div ?x1104 1461) 4))))
 (let ((?x1609 (+ (+ ?x1499 ?x970) 1)))
 (let (($x719 (or (and (= (mod ?x1609 4) 0) (and (distinct (mod ?x1609 100) 0) true)) (= (mod ?x1609 400) 0))))
 (let ((?x1601 (- ?x1437 (* ?x970 365))))
 (let ((?x247 (ite $x719 31 31)))
 (let (($x1401 (>= ?x1601 ?x247)))
 (let ((?x550 (ite $x1401 (+ (- ?x1601 ?x247) 1) (+ (- ?x1601 (ite $x719 0 0)) 1))))
 (let ((?x1072 (ite $x719 60 59)))
 (let (($x798 (>= ?x1601 ?x1072)))
 (let ((?x1248 (ite $x719 91 90)))
 (let (($x875 (>= ?x1601 ?x1248)))
 (let ((?x983 (ite $x875 (+ (- ?x1601 ?x1248) 1) (ite $x798 (+ (- ?x1601 ?x1072) 1) ?x550))))
 (let ((?x732 (ite $x719 121 120)))
 (let (($x1532 (>= ?x1601 ?x732)))
 (let ((?x404 (ite $x719 152 151)))
 (let (($x1294 (>= ?x1601 ?x404)))
 (let ((?x1168 (ite $x1294 (+ (- ?x1601 ?x404) 1) (ite $x1532 (+ (- ?x1601 ?x732) 1) ?x983))))
 (let ((?x1046 (ite $x719 182 181)))
 (let (($x1554 (>= ?x1601 ?x1046)))
 (let ((?x237 (ite $x719 213 212)))
 (let (($x807 (>= ?x1601 ?x237)))
 (let ((?x1419 (ite $x807 (+ (- ?x1601 ?x237) 1) (ite $x1554 (+ (- ?x1601 ?x1046) 1) ?x1168))))
 (let ((?x1008 (ite $x719 244 243)))
 (let (($x314 (>= ?x1601 ?x1008)))
 (let ((?x1358 (ite $x719 274 273)))
 (let (($x897 (>= ?x1601 ?x1358)))
 (let ((?x834 (ite $x897 (+ (- ?x1601 ?x1358) 1) (ite $x314 (+ (- ?x1601 ?x1008) 1) ?x1419))))
 (let ((?x1477 (ite $x719 305 304)))
 (let (($x293 (>= ?x1601 ?x1477)))
 (let ((?x895 (ite $x719 335 334)))
 (let (($x830 (>= ?x1601 ?x895)))
 (let ((?x792 (ite $x830 (+ (- ?x1601 ?x895) 1) (ite $x293 (+ (- ?x1601 ?x1477) 1) ?x834))))
 (let ((?x1405 (+ (* 1 12) 0)))
 (let ((?x241 (ite $x1532 5 (ite $x875 4 (ite $x798 3 (ite $x1401 2 1))))))
 (let ((?x400 (ite $x314 9 (ite $x807 8 (ite $x1554 7 (ite $x1294 6 ?x241))))))
 (let ((?x811 (ite $x830 12 (ite $x293 11 (ite $x897 10 ?x400)))))
 (let ((?x3189 (+ ?x811 ?x1405)))
 (let ((?x3194 (- ?x3189 1)))
 (let ((?x392 (+ (mod ?x3194 12) 1)))
 (let ((?x1302 (ite (or (= ?x392 4) (= ?x392 6) (= ?x392 9) (= ?x392 11)) 30 31)))
 (let (($x3233 (and (= (mod (+ ?x1609 (+ 0 (div ?x3194 12))) 4) 0) (and (distinct (mod (+ ?x1609 (+ 0 (div ?x3194 12))) 100) 0) true))))
 (let (($x2061 (or $x3233 (= (mod (+ ?x1609 (+ 0 (div ?x3194 12))) 400) 0))))
 (let ((?x544 (ite (= ?x392 2) (ite $x2061 29 28) ?x1302)))
 (let (($x1149 (> 1 ?x792)))
 (let ((?x2403 (ite $x1149 1 (ite (> ?x792 ?x544) ?x544 ?x792))))
 (let ((?x2466 (ite (> 1 ?x2403) 1 (ite (> ?x2403 ?x544) ?x544 ?x2403))))
 (let ((?x1693 (ite (= 2 ?x392) (ite $x2061 31 31) (ite (= 1 ?x392) (ite $x2061 0 0) 0))))
 (let ((?x3029 (ite (= 4 ?x392) (ite $x2061 91 90) (ite (= 3 ?x392) (ite $x2061 60 59) ?x1693))))
 (let ((?x1963 (ite (= 6 ?x392) (ite $x2061 152 151) (ite (= 5 ?x392) (ite $x2061 121 120) ?x3029))))
 (let ((?x2616 (ite (= 8 ?x392) (ite $x2061 213 212) (ite (= 7 ?x392) (ite $x2061 182 181) ?x1963))))
 (let ((?x2058 (ite (= 10 ?x392) (ite $x2061 274 273) (ite (= 9 ?x392) (ite $x2061 244 243) ?x2616))))
 (let ((?x2667 (ite (= 12 ?x392) (ite $x2061 335 334) (ite (= 11 ?x392) (ite $x2061 305 304) ?x2058))))
 (let ((?x2011 (+ (* 365 (- (+ ?x1609 (+ 0 (div ?x3194 12))) 1)) (div (- (+ ?x1609 (+ 0 (div ?x3194 12))) 1) 4))))
 (let ((?x1095 (+ (- ?x2011 (div (- (+ ?x1609 (+ 0 (div ?x3194 12))) 1) 100)) (div (- (+ ?x1609 (+ 0 (div ?x3194 12))) 1) 400))))
 (let ((?x2450 (+ (+ (- (+ (+ ?x1095 ?x2667) (- ?x2466 1)) 730179) 0) 730179)))
 (let ((?x2465 (mod ?x2450 146097)))
 (let ((?x1634 (div ?x2465 36524)))
 (let ((?x1447 (ite (<= 4 ?x1634) 3 ?x1634)))
 (let ((?x2400 (- ?x2465 (* ?x1447 36524))))
 (let ((?x2467 (mod ?x2400 1461)))
 (let ((?x2409 (div ?x2467 365)))
 (let ((?x2390 (ite (<= 4 ?x2409) 3 ?x2409)))
 (let ((?x1047 (+ (+ (* (div ?x2450 146097) 400) (* ?x1447 100)) (* (div ?x2400 1461) 4))))
 (let ((?x2858 (+ (+ ?x1047 ?x2390) 1)))
 (let (($x3001 (or (and (= (mod ?x2858 4) 0) (and (distinct (mod ?x2858 100) 0) true)) (= (mod ?x2858 400) 0))))
 (let ((?x505 (- ?x2467 (* ?x2390 365))))
 (let ((?x230 (ite $x3001 31 31)))
 (let (($x285 (>= ?x505 ?x230)))
 (let ((?x869 (ite $x285 (+ (- ?x505 ?x230) 1) (+ (- ?x505 (ite $x3001 0 0)) 1))))
 (let ((?x2843 (ite $x3001 60 59)))
 (let (($x1599 (>= ?x505 ?x2843)))
 (let ((?x2472 (ite $x3001 91 90)))
 (let (($x2435 (>= ?x505 ?x2472)))
 (let ((?x2683 (ite $x2435 (+ (- ?x505 ?x2472) 1) (ite $x1599 (+ (- ?x505 ?x2843) 1) ?x869))))
 (let ((?x2020 (ite $x3001 121 120)))
 (let (($x2240 (>= ?x505 ?x2020)))
 (let ((?x2239 (ite $x3001 152 151)))
 (let (($x3097 (>= ?x505 ?x2239)))
 (let ((?x962 (ite $x3097 (+ (- ?x505 ?x2239) 1) (ite $x2240 (+ (- ?x505 ?x2020) 1) ?x2683))))
 (let ((?x2765 (ite $x3001 182 181)))
 (let (($x927 (>= ?x505 ?x2765)))
 (let ((?x3099 (ite $x3001 213 212)))
 (let (($x2373 (>= ?x505 ?x3099)))
 (let ((?x1089 (ite $x2373 (+ (- ?x505 ?x3099) 1) (ite $x927 (+ (- ?x505 ?x2765) 1) ?x962))))
 (let ((?x801 (ite $x3001 244 243)))
 (let (($x854 (>= ?x505 ?x801)))
 (let ((?x2397 (ite $x3001 274 273)))
 (let (($x2087 (>= ?x505 ?x2397)))
 (let ((?x969 (ite $x2087 (+ (- ?x505 ?x2397) 1) (ite $x854 (+ (- ?x505 ?x801) 1) ?x1089))))
 (let ((?x1980 (ite $x3001 305 304)))
 (let (($x244 (>= ?x505 ?x1980)))
 (let ((?x2432 (ite $x3001 335 334)))
 (let (($x845 (>= ?x505 ?x2432)))
 (let ((?x2990 (ite $x845 (+ (- ?x505 ?x2432) 1) (ite $x244 (+ (- ?x505 ?x1980) 1) ?x969))))
 (let (($x1367 (= 0 0)))
 (let ((?x2842 (ite $x1367 ?x2466 ?x2990)))
 (= x_plus_day ?x2842))))))))))))))))))))))))))))))))))))))))))))))))))))))))))))))))))))))))))))))))))))))))))))))))))))))))))
(assert
 (>= x_plus_1_epoch (- 36584)))
(assert
 (<= x_plus_1_epoch 36829))
(assert
 (= x_plus_1_epoch (+ x_epoch 366)))
(assert
 (not (= x_plus_epoch x_plus_1_epoch)))
(assert
 (= x_epoch 7304))
(assert
 (= x_plus_epoch 7669))
(assert
 (= x_plus_1_epoch 7670))
(check-sat)
